c 111_3_checker_6cl.cnf
c
c field = 111
c formula set type = 3_checker_6cl
c
p cnf 6 64
214 
216 
218 
-213 
-210 
-222 
215 
217 
219 
-212 
-211 
-223 
214 
216 
218 
-223 
-212 
-224 
215 
217 
219 
-222 
-213 
-225 
216 
218 
222 
-215 
-212 
-224 
217 
219 
223 
-214 
-213 
-225 
216 
218 
222 
-225 
-214 
-226 
217 
219 
223 
-224 
-215 
-227 
218 
222 
224 
-217 
-214 
-226 
219 
223 
225 
-216 
-215 
-227 
218 
222 
224 
-227 
-216 
-228 
219 
223 
225 
-226 
-217 
-229 
222 
224 
226 
-219 
-216 
-228 
223 
225 
227 
-218 
-217 
-229 
222 
224 
226 
-229 
-218 
-230 
223 
225 
227 
-228 
-219 
-231 
130 
160 
190 
-101 
-70 
-250 
131 
161 
191 
-100 
-71 
-251 
130 
160 
190 
-251 
-100 
-280 
131 
161 
191 
-250 
-101 
-281 
160 
190 
250 
-131 
-100 
-280 
161 
191 
251 
-130 
-101 
-281 
160 
190 
250 
-281 
-130 
-310 
161 
191 
251 
-280 
-131 
-311 
190 
250 
280 
-161 
-130 
-310 
191 
251 
281 
-160 
-131 
-311 
190 
250 
280 
-311 
-160 
-340 
191 
251 
281 
-310 
-161 
-341 
250 
280 
310 
-191 
-160 
-340 
251 
281 
311 
-190 
-161 
-341 
250 
280 
310 
-341 
-190 
-370 
251 
281 
311 
-340 
-191 
-371 
124 
156 
188 
-93 
-60 
-252 
125 
157 
189 
-92 
-61 
-253 
124 
156 
188 
-253 
-92 
-284 
125 
157 
189 
-252 
-93 
-285 
156 
188 
252 
-125 
-92 
-284 
157 
189 
253 
-124 
-93 
-285 
156 
188 
252 
-285 
-124 
-316 
157 
189 
253 
-284 
-125 
-317 
188 
252 
284 
-157 
-124 
-316 
189 
253 
285 
-156 
-125 
-317 
188 
252 
284 
-317 
-156 
-348 
189 
253 
285 
-316 
-157 
-349 
252 
284 
316 
-189 
-156 
-348 
253 
285 
317 
-188 
-157 
-349 
252 
284 
316 
-349 
-188 
-380 
253 
285 
317 
-348 
-189 
-381 
136 
164 
192 
-109 
-80 
-248 
137 
165 
193 
-108 
-81 
-249 
136 
164 
192 
-249 
-108 
-276 
137 
165 
193 
-248 
-109 
-277 
164 
192 
248 
-137 
-108 
-276 
165 
193 
249 
-136 
-109 
-277 
164 
192 
248 
-277 
-136 
-304 
165 
193 
249 
-276 
-137 
-305 
192 
248 
276 
-165 
-136 
-304 
193 
249 
277 
-164 
-137 
-305 
192 
248 
276 
-305 
-164 
-332 
193 
249 
277 
-304 
-165 
-333 
248 
276 
304 
-193 
-164 
-332 
249 
277 
305 
-192 
-165 
-333 
248 
276 
304 
-333 
-192 
-360 
249 
277 
305 
-332 
-193 
-361 
